&bands
  outdir = 'run_output'
  prefix = 'AlAs'
 filband = 'bands_AlAs'
/
