&bands
  outdir = 'run_output'
  prefix = 'MoS2_2D'
 filband = 'bands_MoS2_2D'
/
