&bands
  outdir = 'run_output'
  prefix = 'Silicon'
 filband = 'bands_Silicon'
/
